parameters: pg_10_1_3_0.300000 

SCIP version 6.0.1 [precision: 8 byte] [memory: block] [mode: optimized] [LP solver: SoPlex 4.0.1] [GitHash: a27ecc0]
Copyright (C) 2002-2019 Konrad-Zuse-Zentrum fuer Informationstechnik Berlin (ZIB)

read problem <instances/pg.mps> ...

original problem has 2700 variables (100 bin, 0 int, 0 impl, 2600 cont) and 125 constraints
read solution <10solution/pg_1.sol> ...

check the feasibility of <10solution/pg_1.sol> for problem <instances/pg.mps> ...

  [linear] <c26>:  +1364<z0>[B] (+0) +26<l0100>[C] (+0) +85<l0101>[C] (+0) +5<l0102>[C] (+0) +52<l0103>[C] (+0) +64<l0104>[C] (+0) +45<l0105>[C] (+0) +54<l0106>[C] (+0) +69<l0107>[C] (+0) +61<l0108>[C] (+0) +65<l0109>[C] (+0) +99<l0110>[C] (+0) +96<l0111>[C] (+0) +72<l0112>[C] (+0) +88<l0113>[C] (+0) +49<l0114>[C] (+0) +6<l0115>[C] (+0) +5<l0116>[C] (+0) +13<l0117>[C] (+0) +31<l0118>[C] (+0) +68<l0119>[C] (+0) +67<l0120>[C] (+0) +83<l0121>[C] (+0) +58<l0122>[C] (+0) +85<l0123>[C] (+0) +18<l0124>[C] (+0) +<f0>[C] (+0) == 1364;
;
violation: left hand side is violated by 1364
  [linear] <c65>:  +1281<z39>[B] (+0) +22<l39100>[C] (+0) +57<l39101>[C] (+0) +94<l39102>[C] (+0) +93<l39103>[C] (+0) +8<l39104>[C] (+0) +72<l39105>[C] (+0) +47<l39106>[C] (+0) +92<l39107>[C] (+0) +63<l39108>[C] (+0) +67<l39109>[C] (+0) +50<l39110>[C] (+0) +91<l39111>[C] (+0) +74<l39112>[C] (+0) +50<l39113>[C] (+0) +3<l39114>[C] (+0) +95<l39115>[C] (+0) +10<l39116>[C] (+0) +2<l39117>[C] (+0) +90<l39118>[C] (+0) +40<l39119>[C] (+0) +27<l39120>[C] (+0) +63<l39121>[C] (+0) +44<l39122>[C] (+0) +11<l39123>[C] (+0) +16<l39124>[C] (+0) +<f39>[C] (+0) == 1281;
;
violation: left hand side is violated by 1281
  [linear] <c77>:  +1163<z51>[B] (+0) +22<l51100>[C] (+0) +49<l51101>[C] (+0) +6<l51102>[C] (+0) +69<l51103>[C] (+0) +14<l51104>[C] (+0) +89<l51105>[C] (+0) +19<l51106>[C] (+0) +46<l51107>[C] (+0) +62<l51108>[C] (+0) +39<l51109>[C] (+0) +54<l51110>[C] (+0) +3<l51111>[C] (+0) +73<l51112>[C] (+0) +98<l51113>[C] (+0) +72<l51114>[C] (+0) +71<l51115>[C] (+0) +38<l51116>[C] (+0) +63<l51117>[C] (+0) +5<l51118>[C] (+0) +44<l51119>[C] (+0) +71<l51120>[C] (+0) +34<l51121>[C] (+0) +<l51122>[C] (+0) +32<l51123>[C] (+0) +89<l51124>[C] (+0) +<f51>[C] (+0) == 1163;
;
violation: left hand side is violated by 1163
The solution <10solution/pg_1.sol> is not feasible to <instances/pg.mps> 

Tring to reoptimize the problem <instances/pg.mps> ...  

obj = -8773.342607, k = 3, alpha = -8773.342607 

n = 2700 

Start to add variable y and new constraints 

y have been released ! 

Finish to create the y and constraint ! 

n = 2700,  j = 100 ! 

set all parameters to default! 

Reoptimization is enabled! 

Reoptimization parameter have been setted ! 

Stop parameter have been setted ! 

Memory for coefs have allocated ! 

Coefficients have been captured ! 

alpha = -8773.342607, n = 2800, j = 100, m = 3 
This is the 1-th iteration ! 

presolving:
(round 1, fast)       0 del vars, 100 del conss, 0 add conss, 0 chg bounds, 0 chg sides, 0 chg coeffs, 0 upgd conss, 2600 impls, 0 clqs
(round 2, exhaustive) 0 del vars, 100 del conss, 0 add conss, 0 chg bounds, 0 chg sides, 0 chg coeffs, 100 upgd conss, 2600 impls, 0 clqs
   (0.0s) probing: 51/100 (51.0%) - 0 fixings, 0 aggregations, 0 implications, 0 bound changes
   (0.0s) probing aborted: 50/50 successive totally useless probings
presolving (3 rounds: 3 fast, 2 medium, 2 exhaustive):
 0 deleted vars, 100 deleted constraints, 0 added constraints, 0 tightened bounds, 0 added holes, 0 changed sides, 0 changed coefficients
 2700 implications, 0 cliques
presolved problem has 2800 variables (100 bin, 0 int, 0 impl, 2700 cont) and 225 constraints
    100 constraints of type <varbound>
    125 constraints of type <linear>
Presolving Time: 0.02

 time | node  | left  |LP iter|LP it/n| mem |mdpt |frac |vars |cons |cols |rows |cuts |confs|strbr|  dualbound   | primalbound  |  gap   
  0.1s|     1 |     0 |  1129 |     - |  16M|   0 |   - |2800 | 227 |2800 | 225 |   0 |   0 |   0 |      --      |      --      |    Inf 

SCIP Status        : problem is solved [infeasible or unbounded]
Solving Time (sec) : 0.05 (over 1 runs: 0.05)
Solving Nodes      : 1 (0 reactivated)
Primal Bound       : +1.00000000000000e+20 (0 solutions)
Dual Bound         : -1.00000000000000e+20
Gap                : infinite
[/home/arthur/Downloads/Archive/scipoptsuite-6.0.1/scip/src/scip/scip_var.c:4229] ERROR: invalid SCIP stage <10>
[/home/arthur/Downloads/Archive/scipoptsuite-6.0.1/scip/src/scip/cons_linear.c:16536] ERROR: Error <-8> in function call
[/home/arthur/Downloads/Archive/scipoptsuite-6.0.1/scip/src/scip/cons.c:7279] ERROR: Error <-8> in function call
[/home/arthur/Downloads/Archive/scipoptsuite-6.0.1/scip/src/scip/conflictstore.c:392] ERROR: Error <-8> in function call
[/home/arthur/Downloads/Archive/scipoptsuite-6.0.1/scip/src/scip/conflictstore.c:850] ERROR: Error <-8> in function call
[/home/arthur/Downloads/Archive/scipoptsuite-6.0.1/scip/src/scip/scip_solve.c:1867] ERROR: Error <-8> in function call
[/home/arthur/Downloads/Archive/scipoptsuite-6.0.1/scip/src/scip/scip_solve.c:3337] ERROR: Error <-8> in function call
[/home/arthur/Documents/scip/project/repair/src/cmain.c:283] ERROR: Error <-8> in function call

real	0m0.070s
user	0m0.063s
sys	0m0.007s
